(set-logic ALL)
(set-option :produce-models true)
(define-fun-rec str.toLower ((x String)) String
  (ite (= x "")
      ""
      (let ((Head (str.at x 0)))
        (str.++ 
          (ite (and (<= 65 (str.to_code Head)) 
                     (<= (str.to_code Head) 90))
               (str.from_code (+ (str.to_code Head) 32))
               Head)
          (str.toLower (str.substr x 1 (- (str.len x) 1)))))))
(declare-fun sym209 () String)
(declare-fun sym3608 () String)
(declare-fun sym3707 () String)
(declare-fun sym817 () String)
(declare-fun sym1902 () String)
(declare-fun sym2548 () String)
(declare-fun sym551 () String)
(declare-fun sym1469 () String)
(declare-fun sym1687 () String)
(declare-fun sym2336 () String)
(declare-fun sym2972 () String)
(declare-fun sym1036 () String)
(declare-fun sym2760 () String)
(declare-fun sym1254 () String)
(declare-fun sym2120 () String)
(declare-fun sym3396 () String)
(declare-fun sym161 () String)
(declare-fun sym3184 () String)

(assert (not (= "" sym2548 )))
(assert (not (= (str.toLower (str.substr sym2760  0 1))"q" )))
(assert (= (str.toLower (str.substr sym209  0 1))"y" ))
(assert (not (= (str.toLower (str.substr sym2972  0 1))"q" )))
(assert (not (= (str.toLower (str.substr sym1687  0 1))"q" )))
(assert (not (= (str.toLower (str.substr sym1469  0 1))"q" )))
(assert (not (= "" sym2120 )))
(assert (not (= (str.toLower (str.substr sym2336  0 1))"q" )))
(assert (= (str.toLower (str.substr sym2760  0 1))"p" ))
(assert (not (= (str.toLower (str.substr sym817  0 1))"g" )))
(assert (not (= (str.toLower (str.substr sym2120  0 1))"l" )))
(assert (not (= (str.toLower (str.substr sym817  0 1))"p" )))
(assert (not (= "" sym209 )))
(assert (not (= "" sym1254 )))
(assert (= (str.toLower (str.substr sym1687  0 1))"h" ))
(assert (= (str.toLower (str.substr sym3184  0 1))"p" ))
(assert (= "" "" ))
(assert (not (= "" sym3608 )))
(assert (not (= "n" "y" )))
(assert (not (= "" (str.toLower (str.substr sym209  0 1)))))
(assert (= (str.toLower (str.substr sym551  0 1))"p" ))
(assert (not (= (str.toLower (str.substr sym3707  0 1))"y" )))
(assert (not (= (str.toLower (str.substr sym1687  0 1))"g" )))
(assert (not (= (str.toLower (str.substr sym2548  0 1))"q" )))
(assert (not (= "" "y" )))
(assert (not (= "" sym3184 )))
(assert (not (= "" sym2336 )))
(assert (not (= (str.toLower (str.substr sym817  0 1))"r" )))
(assert (not (= (str.toLower (str.substr sym1687  0 1))"l" )))
(assert (= (str.toLower (str.substr sym817  0 1))"h" ))
(assert (not (= (str.toLower (str.substr sym2120  0 1))"k" )))
(assert (not (= (str.toLower (str.substr sym2120  0 1))"g" )))
(assert (not (= (str.toLower (str.substr sym2120  0 1))"q" )))
(assert (not (= "" "q" )))
(assert (not (= "" sym817 )))
(assert (not (= (str.toLower (str.substr sym1902  0 1))"q" )))
(assert (not (= (str.toLower (str.substr sym1687  0 1))"p" )))
(assert (not (= (str.toLower (str.substr sym1036  0 1))"q" )))
(assert (not (= (str.toLower (str.substr sym1254  0 1))"l" )))
(assert (= "y" "y" ))
(assert (= (str.toLower (str.substr sym2548  0 1))"p" ))
(assert (= (str.toLower (str.substr sym1902  0 1))"p" ))
(assert (not (= "" sym1687 )))
(assert (not (= (str.toLower (str.substr sym3396  0 1))"q" )))
(assert (not (= "" sym1469 )))
(assert (= (str.toLower (str.substr sym1254  0 1))"h" ))
(assert (not (= "" sym3396 )))
(assert (not (= (str.toLower (str.substr sym1687  0 1))"k" )))
(assert (not (= (str.toLower (str.substr sym1254  0 1))"g" )))
(assert (not (= "" sym3707 )))
(assert (= (str.toLower (str.substr sym1036  0 1))"p" ))
(assert (= (str.toLower (str.substr sym3608  0 1))"p" ))
(assert (not (= (str.toLower (str.substr sym551  0 1))"q" )))
(assert (not (= (str.toLower (str.substr sym2120  0 1))"p" )))
(assert (= (str.toLower (str.substr sym2972  0 1))"p" ))
(assert (= (str.toLower (str.substr sym1469  0 1))"p" ))
(assert (= (str.toLower (str.substr sym2120  0 1))"h" ))
(assert (not (= "" sym1036 )))
(assert (not (= (str.toLower (str.substr sym1254  0 1))"r" )))
(assert (= (str.toLower (str.substr sym2336  0 1))"p" ))
(assert (not (= (str.toLower (str.substr sym2120  0 1))"r" )))
(assert (not (= "" sym2972 )))
(assert (not (= "" sym551 )))
(assert (not (= (str.toLower (str.substr sym817  0 1))"l" )))
(assert (not (= "" "n" )))
(assert (not (= (str.toLower (str.substr sym1254  0 1))"q" )))
(assert (not (= (str.toLower (str.substr sym3608  0 1))"q" )))
(assert (not (= (str.toLower (str.substr sym1254  0 1))"p" )))
(assert (not (= "" (str.toLower (str.substr sym3707  0 1)))))
(assert (not (= "" sym2760 )))
(assert (not (= "y" "n" )))
(assert (= "" sym161 ))
(assert (not (= (str.toLower (str.substr sym817  0 1))"k" )))
(assert (= (str.toLower (str.substr sym3396  0 1))"p" ))
(assert (not (= "" sym1902 )))
(assert (not (= (str.toLower (str.substr sym1687  0 1))"r" )))
(assert (not (= "" "y" )))
(assert (not (= (str.toLower (str.substr sym1254  0 1))"k" )))
(assert (not (= (str.toLower (str.substr sym3184  0 1))"q" )))
(assert (not (= (str.toLower (str.substr sym817  0 1))"q" )))
(check-sat)
(get-model)
(exit)
